25 40
1 2 5
1 6 2
2 3 5
2 7 3
3 4 5
3 8 3
4 5 3
4 9 3
5 10 3
6 7 5
6 11 4
7 8 5
7 12 2
8 9 4
8 13 4
9 10 5
9 14 4
10 15 3
11 12 2
11 16 1
12 13 1
12 17 2
13 14 4
13 18 4
14 15 2
14 19 1
15 20 5
16 17 2
16 21 2
17 18 3
17 22 2
18 19 2
18 23 1
19 20 2
19 24 1
20 25 2
21 22 5
22 23 5
23 24 3
24 25 4
